\ This file has been generated by DOcplex
\ ENCODING=ISO-8859-1
\Problem name: GAP

Minimize
 obj: 18 x_0_0 + 12 x_0_1 + 33 x_0_2 + 10 x_0_3 + 43 x_0_4 + 35 x_0_5 + 44 x_0_6
      + 50 x_0_7 + 50 x_0_8 + 26 x_0_9 + 22 x_0_10 + 13 x_0_11 + 31 x_0_12
      + 30 x_0_13 + 31 x_0_14 + 24 x_0_15 + 32 x_0_16 + 17 x_0_17 + 28 x_0_18
      + 47 x_0_19 + 20 x_0_20 + 28 x_0_21 + 48 x_0_22 + 41 x_0_23 + 13 x_0_24
      + 20 x_0_25 + 37 x_0_26 + 22 x_0_27 + 42 x_0_28 + 23 x_0_29 + 21 x_0_30
      + 28 x_0_31 + 18 x_0_32 + 44 x_0_33 + 47 x_0_34 + 12 x_0_35 + 47 x_0_36
      + 23 x_0_37 + 38 x_0_38 + 28 x_0_39 + 27 x_0_40 + 25 x_0_41 + 17 x_0_42
      + 21 x_0_43 + 35 x_0_44 + 37 x_0_45 + 21 x_0_46 + 25 x_0_47 + 31 x_0_48
      + 42 x_0_49 + 29 x_0_50 + 21 x_0_51 + 13 x_0_52 + 11 x_0_53 + 21 x_0_54
      + 48 x_0_55 + 46 x_0_56 + 13 x_0_57 + 27 x_0_58 + 42 x_0_59 + 38 x_0_60
      + 40 x_0_61 + 35 x_0_62 + 23 x_0_63 + 27 x_0_64 + 24 x_0_65 + 49 x_0_66
      + 33 x_0_67 + 38 x_0_68 + 14 x_0_69 + 14 x_0_70 + 27 x_0_71 + 38 x_0_72
      + 15 x_0_73 + 34 x_0_74 + 21 x_0_75 + 10 x_0_76 + 26 x_0_77 + 39 x_0_78
      + 13 x_0_79 + 36 x_0_80 + 20 x_0_81 + 49 x_0_82 + 10 x_0_83 + 36 x_0_84
      + 42 x_0_85 + 21 x_0_86 + 12 x_0_87 + 31 x_0_88 + 39 x_0_89 + 43 x_0_90
      + 39 x_0_91 + 20 x_0_92 + 15 x_0_93 + 43 x_0_94 + 49 x_0_95 + 21 x_0_96
      + 31 x_0_97 + 20 x_0_98 + 37 x_0_99 + 19 x_1_0 + 40 x_1_1 + 43 x_1_2
      + 50 x_1_3 + 17 x_1_4 + 18 x_1_5 + 33 x_1_6 + 30 x_1_7 + 16 x_1_8
      + 44 x_1_9 + 24 x_1_10 + 35 x_1_11 + 12 x_1_12 + 24 x_1_13 + 15 x_1_14
      + 28 x_1_15 + 30 x_1_16 + 12 x_1_17 + 15 x_1_18 + 15 x_1_19 + 39 x_1_20
      + 11 x_1_21 + 11 x_1_22 + 19 x_1_23 + 47 x_1_24 + 41 x_1_25 + 22 x_1_26
      + 50 x_1_27 + 41 x_1_28 + 50 x_1_29 + 41 x_1_30 + 49 x_1_31 + 37 x_1_32
      + 15 x_1_33 + 25 x_1_34 + 15 x_1_35 + 48 x_1_36 + 39 x_1_37 + 30 x_1_38
      + 41 x_1_39 + 34 x_1_40 + 24 x_1_41 + 34 x_1_42 + 15 x_1_43 + 33 x_1_44
      + 34 x_1_45 + 35 x_1_46 + 28 x_1_47 + 26 x_1_48 + 27 x_1_49 + 43 x_1_50
      + 17 x_1_51 + 40 x_1_52 + 33 x_1_53 + 37 x_1_54 + 48 x_1_55 + 24 x_1_56
      + 14 x_1_57 + 28 x_1_58 + 12 x_1_59 + 29 x_1_60 + 14 x_1_61 + 40 x_1_62
      + 33 x_1_63 + 21 x_1_64 + 29 x_1_65 + 17 x_1_66 + 46 x_1_67 + 32 x_1_68
      + 36 x_1_69 + 15 x_1_70 + 28 x_1_71 + 50 x_1_72 + 31 x_1_73 + 39 x_1_74
      + 39 x_1_75 + 33 x_1_76 + 17 x_1_77 + 23 x_1_78 + 24 x_1_79 + 14 x_1_80
      + 36 x_1_81 + 15 x_1_82 + 17 x_1_83 + 32 x_1_84 + 34 x_1_85 + 35 x_1_86
      + 44 x_1_87 + 18 x_1_88 + 46 x_1_89 + 25 x_1_90 + 41 x_1_91 + 33 x_1_92
      + 49 x_1_93 + 43 x_1_94 + 10 x_1_95 + 25 x_1_96 + 15 x_1_97 + 30 x_1_98
      + 17 x_1_99 + 18 x_2_0 + 33 x_2_1 + 30 x_2_2 + 22 x_2_3 + 13 x_2_4
      + 17 x_2_5 + 42 x_2_6 + 28 x_2_7 + 11 x_2_8 + 12 x_2_9 + 32 x_2_10
      + 47 x_2_11 + 32 x_2_12 + 39 x_2_13 + 41 x_2_14 + 12 x_2_15 + 34 x_2_16
      + 14 x_2_17 + 14 x_2_18 + 30 x_2_19 + 23 x_2_20 + 10 x_2_21 + 15 x_2_22
      + 35 x_2_23 + 44 x_2_24 + 24 x_2_25 + 48 x_2_26 + 24 x_2_27 + 27 x_2_28
      + 40 x_2_29 + 26 x_2_30 + 47 x_2_31 + 40 x_2_32 + 46 x_2_33 + 12 x_2_34
      + 34 x_2_35 + 39 x_2_36 + 26 x_2_37 + 40 x_2_38 + 26 x_2_39 + 30 x_2_40
      + 46 x_2_41 + 47 x_2_42 + 27 x_2_43 + 37 x_2_44 + 45 x_2_45 + 19 x_2_46
      + 39 x_2_47 + 10 x_2_48 + 42 x_2_49 + 40 x_2_50 + 48 x_2_51 + 32 x_2_52
      + 36 x_2_53 + 31 x_2_54 + 17 x_2_55 + 35 x_2_56 + 41 x_2_57 + 25 x_2_58
      + 10 x_2_59 + 50 x_2_60 + 13 x_2_61 + 44 x_2_62 + 10 x_2_63 + 31 x_2_64
      + 36 x_2_65 + 33 x_2_66 + 13 x_2_67 + 44 x_2_68 + 25 x_2_69 + 23 x_2_70
      + 31 x_2_71 + 17 x_2_72 + 11 x_2_73 + 27 x_2_74 + 33 x_2_75 + 34 x_2_76
      + 31 x_2_77 + 46 x_2_78 + 11 x_2_79 + 28 x_2_80 + 14 x_2_81 + 28 x_2_82
      + 33 x_2_83 + 45 x_2_84 + 16 x_2_85 + 21 x_2_86 + 48 x_2_87 + 47 x_2_88
      + 29 x_2_89 + 44 x_2_90 + 10 x_2_91 + 35 x_2_92 + 20 x_2_93 + 34 x_2_94
      + 24 x_2_95 + 31 x_2_96 + 36 x_2_97 + 15 x_2_98 + 48 x_2_99 + 28 x_3_0
      + 34 x_3_1 + 17 x_3_2 + 43 x_3_3 + 41 x_3_4 + 34 x_3_5 + 25 x_3_6
      + 34 x_3_7 + 29 x_3_8 + 22 x_3_9 + 49 x_3_10 + 45 x_3_11 + 19 x_3_12
      + 18 x_3_13 + 31 x_3_14 + 25 x_3_15 + 25 x_3_16 + 14 x_3_17 + 48 x_3_18
      + 23 x_3_19 + 19 x_3_20 + 27 x_3_21 + 20 x_3_22 + 41 x_3_23 + 14 x_3_24
      + 29 x_3_25 + 22 x_3_26 + 39 x_3_27 + 23 x_3_28 + 24 x_3_29 + 17 x_3_30
      + 44 x_3_31 + 38 x_3_32 + 41 x_3_33 + 42 x_3_34 + 20 x_3_35 + 37 x_3_36
      + 26 x_3_37 + 27 x_3_38 + 14 x_3_39 + 33 x_3_40 + 15 x_3_41 + 29 x_3_42
      + 11 x_3_43 + 17 x_3_44 + 48 x_3_45 + 33 x_3_46 + 40 x_3_47 + 18 x_3_48
      + 22 x_3_49 + 45 x_3_50 + 44 x_3_51 + 41 x_3_52 + 20 x_3_53 + 50 x_3_54
      + 15 x_3_55 + 19 x_3_56 + 19 x_3_57 + 26 x_3_58 + 47 x_3_59 + 14 x_3_60
      + 12 x_3_61 + 31 x_3_62 + 48 x_3_63 + 41 x_3_64 + 42 x_3_65 + 27 x_3_66
      + 39 x_3_67 + 43 x_3_68 + 48 x_3_69 + 33 x_3_70 + 20 x_3_71 + 20 x_3_72
      + 13 x_3_73 + 23 x_3_74 + 22 x_3_75 + 42 x_3_76 + 46 x_3_77 + 32 x_3_78
      + 32 x_3_79 + 36 x_3_80 + 40 x_3_81 + 22 x_3_82 + 43 x_3_83 + 18 x_3_84
      + 26 x_3_85 + 39 x_3_86 + 31 x_3_87 + 47 x_3_88 + 20 x_3_89 + 20 x_3_90
      + 40 x_3_91 + 36 x_3_92 + 36 x_3_93 + 22 x_3_94 + 44 x_3_95 + 50 x_3_96
      + 43 x_3_97 + 19 x_3_98 + 14 x_3_99 + 40 x_4_0 + 31 x_4_1 + 17 x_4_2
      + 36 x_4_3 + 50 x_4_4 + 28 x_4_5 + 20 x_4_6 + 27 x_4_7 + 15 x_4_8
      + 25 x_4_9 + 42 x_4_10 + 15 x_4_11 + 11 x_4_12 + 39 x_4_13 + 22 x_4_14
      + 36 x_4_15 + 48 x_4_16 + 48 x_4_17 + 28 x_4_18 + 41 x_4_19 + 16 x_4_20
      + 26 x_4_21 + 49 x_4_22 + 47 x_4_23 + 21 x_4_24 + 44 x_4_25 + 50 x_4_26
      + 34 x_4_27 + 39 x_4_28 + 16 x_4_29 + 19 x_4_30 + 21 x_4_31 + 32 x_4_32
      + 12 x_4_33 + 48 x_4_34 + 24 x_4_35 + 23 x_4_36 + 41 x_4_37 + 44 x_4_38
      + 15 x_4_39 + 45 x_4_40 + 26 x_4_41 + 48 x_4_42 + 21 x_4_43 + 44 x_4_44
      + 35 x_4_45 + 43 x_4_46 + 37 x_4_47 + 45 x_4_48 + 39 x_4_49 + 32 x_4_50
      + 15 x_4_51 + 12 x_4_52 + 45 x_4_53 + 33 x_4_54 + 16 x_4_55 + 49 x_4_56
      + 49 x_4_57 + 26 x_4_58 + 42 x_4_59 + 31 x_4_60 + 25 x_4_61 + 20 x_4_62
      + 12 x_4_63 + 10 x_4_64 + 20 x_4_65 + 46 x_4_66 + 46 x_4_67 + 46 x_4_68
      + 41 x_4_69 + 30 x_4_70 + 14 x_4_71 + 18 x_4_72 + 40 x_4_73 + 10 x_4_74
      + 22 x_4_75 + 33 x_4_76 + 17 x_4_77 + 33 x_4_78 + 17 x_4_79 + 30 x_4_80
      + 21 x_4_81 + 40 x_4_82 + 27 x_4_83 + 42 x_4_84 + 50 x_4_85 + 47 x_4_86
      + 14 x_4_87 + 19 x_4_88 + 16 x_4_89 + 39 x_4_90 + 26 x_4_91 + 48 x_4_92
      + 22 x_4_93 + 49 x_4_94 + 18 x_4_95 + 27 x_4_96 + 32 x_4_97 + 25 x_4_98
      + 22 x_4_99 + 27 x_5_0 + 28 x_5_1 + 30 x_5_2 + 10 x_5_3 + 10 x_5_4
      + 43 x_5_5 + 22 x_5_6 + 48 x_5_7 + 47 x_5_8 + 21 x_5_9 + 17 x_5_10
      + 30 x_5_11 + 49 x_5_12 + 46 x_5_13 + 12 x_5_14 + 45 x_5_15 + 37 x_5_16
      + 23 x_5_17 + 37 x_5_18 + 27 x_5_19 + 20 x_5_20 + 19 x_5_21 + 29 x_5_22
      + 48 x_5_23 + 36 x_5_24 + 46 x_5_25 + 46 x_5_26 + 31 x_5_27 + 38 x_5_28
      + 10 x_5_29 + 17 x_5_30 + 10 x_5_31 + 42 x_5_32 + 49 x_5_33 + 48 x_5_34
      + 29 x_5_35 + 40 x_5_36 + 44 x_5_37 + 31 x_5_38 + 26 x_5_39 + 31 x_5_40
      + 10 x_5_41 + 13 x_5_42 + 43 x_5_43 + 49 x_5_44 + 30 x_5_45 + 46 x_5_46
      + 16 x_5_47 + 11 x_5_48 + 37 x_5_49 + 24 x_5_50 + 39 x_5_51 + 40 x_5_52
      + 39 x_5_53 + 30 x_5_54 + 23 x_5_55 + 28 x_5_56 + 26 x_5_57 + 26 x_5_58
      + 39 x_5_59 + 23 x_5_60 + 31 x_5_61 + 23 x_5_62 + 10 x_5_63 + 45 x_5_64
      + 39 x_5_65 + 42 x_5_66 + 13 x_5_67 + 25 x_5_68 + 37 x_5_69 + 38 x_5_70
      + 26 x_5_71 + 22 x_5_72 + 38 x_5_73 + 33 x_5_74 + 24 x_5_75 + 43 x_5_76
      + 45 x_5_77 + 10 x_5_78 + 30 x_5_79 + 25 x_5_80 + 12 x_5_81 + 25 x_5_82
      + 34 x_5_83 + 11 x_5_84 + 46 x_5_85 + 50 x_5_86 + 50 x_5_87 + 19 x_5_88
      + 20 x_5_89 + 39 x_5_90 + 29 x_5_91 + 28 x_5_92 + 36 x_5_93 + 19 x_5_94
      + 38 x_5_95 + 38 x_5_96 + 24 x_5_97 + 45 x_5_98 + 26 x_5_99 + 34 x_6_0
      + 49 x_6_1 + 17 x_6_2 + 11 x_6_3 + 14 x_6_4 + 48 x_6_5 + 42 x_6_6
      + 23 x_6_7 + 27 x_6_8 + 25 x_6_9 + 28 x_6_10 + 32 x_6_11 + 21 x_6_12
      + 39 x_6_13 + 48 x_6_14 + 33 x_6_15 + 11 x_6_16 + 39 x_6_17 + 30 x_6_18
      + 44 x_6_19 + 46 x_6_20 + 14 x_6_21 + 47 x_6_22 + 30 x_6_23 + 39 x_6_24
      + 36 x_6_25 + 37 x_6_26 + 47 x_6_27 + 25 x_6_28 + 38 x_6_29 + 41 x_6_30
      + 49 x_6_31 + 33 x_6_32 + 11 x_6_33 + 40 x_6_34 + 50 x_6_35 + 50 x_6_36
      + 28 x_6_37 + 39 x_6_38 + 44 x_6_39 + 21 x_6_40 + 17 x_6_41 + 38 x_6_42
      + 25 x_6_43 + 25 x_6_44 + 12 x_6_45 + 14 x_6_46 + 16 x_6_47 + 20 x_6_48
      + 45 x_6_49 + 47 x_6_50 + 18 x_6_51 + 32 x_6_52 + 45 x_6_53 + 44 x_6_54
      + 25 x_6_55 + 28 x_6_56 + 31 x_6_57 + 39 x_6_58 + 12 x_6_59 + 15 x_6_60
      + 42 x_6_61 + 50 x_6_62 + 21 x_6_63 + 16 x_6_64 + 49 x_6_65 + 25 x_6_66
      + 22 x_6_67 + 10 x_6_68 + 20 x_6_69 + 16 x_6_70 + 11 x_6_71 + 27 x_6_72
      + 15 x_6_73 + 29 x_6_74 + 34 x_6_75 + 27 x_6_76 + 42 x_6_77 + 43 x_6_78
      + 46 x_6_79 + 44 x_6_80 + 42 x_6_81 + 28 x_6_82 + 48 x_6_83 + 23 x_6_84
      + 33 x_6_85 + 20 x_6_86 + 39 x_6_87 + 31 x_6_88 + 10 x_6_89 + 43 x_6_90
      + 48 x_6_91 + 20 x_6_92 + 48 x_6_93 + 46 x_6_94 + 43 x_6_95 + 39 x_6_96
      + 29 x_6_97 + 32 x_6_98 + 33 x_6_99 + 26 x_7_0 + 32 x_7_1 + 41 x_7_2
      + 10 x_7_3 + 34 x_7_4 + 43 x_7_5 + 47 x_7_6 + 20 x_7_7 + 21 x_7_8
      + 42 x_7_9 + 41 x_7_10 + 16 x_7_11 + 28 x_7_12 + 35 x_7_13 + 39 x_7_14
      + 23 x_7_15 + 29 x_7_16 + 35 x_7_17 + 41 x_7_18 + 15 x_7_19 + 26 x_7_20
      + 32 x_7_21 + 41 x_7_22 + 43 x_7_23 + 15 x_7_24 + 35 x_7_25 + 34 x_7_26
      + 10 x_7_27 + 21 x_7_28 + 14 x_7_29 + 48 x_7_30 + 43 x_7_31 + 28 x_7_32
      + 41 x_7_33 + 13 x_7_34 + 43 x_7_35 + 10 x_7_36 + 31 x_7_37 + 29 x_7_38
      + 45 x_7_39 + 45 x_7_40 + 16 x_7_41 + 33 x_7_42 + 27 x_7_43 + 26 x_7_44
      + 17 x_7_45 + 34 x_7_46 + 14 x_7_47 + 23 x_7_48 + 29 x_7_49 + 42 x_7_50
      + 15 x_7_51 + 16 x_7_52 + 20 x_7_53 + 38 x_7_54 + 29 x_7_55 + 20 x_7_56
      + 32 x_7_57 + 17 x_7_58 + 20 x_7_59 + 26 x_7_60 + 12 x_7_61 + 38 x_7_62
      + 31 x_7_63 + 32 x_7_64 + 31 x_7_65 + 28 x_7_66 + 29 x_7_67 + 33 x_7_68
      + 21 x_7_69 + 48 x_7_70 + 27 x_7_71 + 19 x_7_72 + 18 x_7_73 + 37 x_7_74
      + 13 x_7_75 + 33 x_7_76 + 12 x_7_77 + 25 x_7_78 + 32 x_7_79 + 23 x_7_80
      + 48 x_7_81 + 34 x_7_82 + 20 x_7_83 + 28 x_7_84 + 11 x_7_85 + 12 x_7_86
      + 14 x_7_87 + 18 x_7_88 + 37 x_7_89 + 28 x_7_90 + 49 x_7_91 + 23 x_7_92
      + 20 x_7_93 + 19 x_7_94 + 37 x_7_95 + 16 x_7_96 + 39 x_7_97 + 12 x_7_98
      + 49 x_7_99 + 40 x_8_0 + 42 x_8_1 + 30 x_8_2 + 26 x_8_3 + 30 x_8_4
      + 30 x_8_5 + 25 x_8_6 + 29 x_8_7 + 29 x_8_8 + 31 x_8_9 + 36 x_8_10
      + 23 x_8_11 + 10 x_8_12 + 48 x_8_13 + 23 x_8_14 + 48 x_8_15 + 32 x_8_16
      + 29 x_8_17 + 38 x_8_18 + 28 x_8_19 + 37 x_8_20 + 15 x_8_21 + 15 x_8_22
      + 28 x_8_23 + 41 x_8_24 + 23 x_8_25 + 22 x_8_26 + 38 x_8_27 + 45 x_8_28
      + 27 x_8_29 + 48 x_8_30 + 20 x_8_31 + 32 x_8_32 + 32 x_8_33 + 34 x_8_34
      + 38 x_8_35 + 46 x_8_36 + 41 x_8_37 + 41 x_8_38 + 48 x_8_39 + 16 x_8_40
      + 35 x_8_41 + 25 x_8_42 + 35 x_8_43 + 49 x_8_44 + 39 x_8_45 + 47 x_8_46
      + 36 x_8_47 + 22 x_8_48 + 47 x_8_49 + 41 x_8_50 + 36 x_8_51 + 25 x_8_52
      + 21 x_8_53 + 42 x_8_54 + 11 x_8_55 + 16 x_8_56 + 37 x_8_57 + 12 x_8_58
      + 29 x_8_59 + 22 x_8_60 + 47 x_8_61 + 10 x_8_62 + 22 x_8_63 + 37 x_8_64
      + 39 x_8_65 + 12 x_8_66 + 40 x_8_67 + 39 x_8_68 + 11 x_8_69 + 43 x_8_70
      + 42 x_8_71 + 21 x_8_72 + 11 x_8_73 + 44 x_8_74 + 12 x_8_75 + 47 x_8_76
      + 36 x_8_77 + 17 x_8_78 + 42 x_8_79 + 15 x_8_80 + 23 x_8_81 + 41 x_8_82
      + 22 x_8_83 + 20 x_8_84 + 40 x_8_85 + 42 x_8_86 + 10 x_8_87 + 27 x_8_88
      + 24 x_8_89 + 49 x_8_90 + 27 x_8_91 + 21 x_8_92 + 40 x_8_93 + 48 x_8_94
      + 49 x_8_95 + 22 x_8_96 + 16 x_8_97 + 14 x_8_98 + 25 x_8_99 + 26 x_9_0
      + 29 x_9_1 + 25 x_9_2 + 21 x_9_3 + 16 x_9_4 + 20 x_9_5 + 38 x_9_6
      + 41 x_9_7 + 38 x_9_8 + 24 x_9_9 + 41 x_9_10 + 41 x_9_11 + 14 x_9_12
      + 31 x_9_13 + 32 x_9_14 + 32 x_9_15 + 17 x_9_16 + 23 x_9_17 + 25 x_9_18
      + 35 x_9_19 + 16 x_9_20 + 17 x_9_21 + 43 x_9_22 + 24 x_9_23 + 35 x_9_24
      + 35 x_9_25 + 24 x_9_26 + 16 x_9_27 + 23 x_9_28 + 31 x_9_29 + 19 x_9_30
      + 48 x_9_31 + 28 x_9_32 + 30 x_9_33 + 13 x_9_34 + 35 x_9_35 + 34 x_9_36
      + 26 x_9_37 + 46 x_9_38 + 23 x_9_39 + 16 x_9_40 + 39 x_9_41 + 16 x_9_42
      + 48 x_9_43 + 44 x_9_44 + 48 x_9_45 + 22 x_9_46 + 48 x_9_47 + 21 x_9_48
      + 11 x_9_49 + 35 x_9_50 + 14 x_9_51 + 29 x_9_52 + 38 x_9_53 + 41 x_9_54
      + 34 x_9_55 + 22 x_9_56 + 31 x_9_57 + 36 x_9_58 + 38 x_9_59 + 15 x_9_60
      + 13 x_9_61 + 22 x_9_62 + 19 x_9_63 + 27 x_9_64 + 40 x_9_65 + 27 x_9_66
      + 12 x_9_67 + 12 x_9_68 + 25 x_9_69 + 42 x_9_70 + 40 x_9_71 + 24 x_9_72
      + 41 x_9_73 + 39 x_9_74 + 34 x_9_75 + 33 x_9_76 + 40 x_9_77 + 33 x_9_78
      + 31 x_9_79 + 35 x_9_80 + 14 x_9_81 + 29 x_9_82 + 35 x_9_83 + 16 x_9_84
      + 14 x_9_85 + 23 x_9_86 + 47 x_9_87 + 23 x_9_88 + 35 x_9_89 + 12 x_9_90
      + 24 x_9_91 + 42 x_9_92 + 48 x_9_93 + 31 x_9_94 + 31 x_9_95 + 11 x_9_96
      + 13 x_9_97 + 41 x_9_98 + 41 x_9_99
Subject To
 task_0: x_0_0 + x_1_0 + x_2_0 + x_3_0 + x_4_0 + x_5_0 + x_6_0 + x_7_0 + x_8_0
         + x_9_0 = 1
 task_1: x_0_1 + x_1_1 + x_2_1 + x_3_1 + x_4_1 + x_5_1 + x_6_1 + x_7_1 + x_8_1
         + x_9_1 = 1
 task_2: x_0_2 + x_1_2 + x_2_2 + x_3_2 + x_4_2 + x_5_2 + x_6_2 + x_7_2 + x_8_2
         + x_9_2 = 1
 task_3: x_0_3 + x_1_3 + x_2_3 + x_3_3 + x_4_3 + x_5_3 + x_6_3 + x_7_3 + x_8_3
         + x_9_3 = 1
 task_4: x_0_4 + x_1_4 + x_2_4 + x_3_4 + x_4_4 + x_5_4 + x_6_4 + x_7_4 + x_8_4
         + x_9_4 = 1
 task_5: x_0_5 + x_1_5 + x_2_5 + x_3_5 + x_4_5 + x_5_5 + x_6_5 + x_7_5 + x_8_5
         + x_9_5 = 1
 task_6: x_0_6 + x_1_6 + x_2_6 + x_3_6 + x_4_6 + x_5_6 + x_6_6 + x_7_6 + x_8_6
         + x_9_6 = 1
 task_7: x_0_7 + x_1_7 + x_2_7 + x_3_7 + x_4_7 + x_5_7 + x_6_7 + x_7_7 + x_8_7
         + x_9_7 = 1
 task_8: x_0_8 + x_1_8 + x_2_8 + x_3_8 + x_4_8 + x_5_8 + x_6_8 + x_7_8 + x_8_8
         + x_9_8 = 1
 task_9: x_0_9 + x_1_9 + x_2_9 + x_3_9 + x_4_9 + x_5_9 + x_6_9 + x_7_9 + x_8_9
         + x_9_9 = 1
 task_10: x_0_10 + x_1_10 + x_2_10 + x_3_10 + x_4_10 + x_5_10 + x_6_10 + x_7_10
          + x_8_10 + x_9_10 = 1
 task_11: x_0_11 + x_1_11 + x_2_11 + x_3_11 + x_4_11 + x_5_11 + x_6_11 + x_7_11
          + x_8_11 + x_9_11 = 1
 task_12: x_0_12 + x_1_12 + x_2_12 + x_3_12 + x_4_12 + x_5_12 + x_6_12 + x_7_12
          + x_8_12 + x_9_12 = 1
 task_13: x_0_13 + x_1_13 + x_2_13 + x_3_13 + x_4_13 + x_5_13 + x_6_13 + x_7_13
          + x_8_13 + x_9_13 = 1
 task_14: x_0_14 + x_1_14 + x_2_14 + x_3_14 + x_4_14 + x_5_14 + x_6_14 + x_7_14
          + x_8_14 + x_9_14 = 1
 task_15: x_0_15 + x_1_15 + x_2_15 + x_3_15 + x_4_15 + x_5_15 + x_6_15 + x_7_15
          + x_8_15 + x_9_15 = 1
 task_16: x_0_16 + x_1_16 + x_2_16 + x_3_16 + x_4_16 + x_5_16 + x_6_16 + x_7_16
          + x_8_16 + x_9_16 = 1
 task_17: x_0_17 + x_1_17 + x_2_17 + x_3_17 + x_4_17 + x_5_17 + x_6_17 + x_7_17
          + x_8_17 + x_9_17 = 1
 task_18: x_0_18 + x_1_18 + x_2_18 + x_3_18 + x_4_18 + x_5_18 + x_6_18 + x_7_18
          + x_8_18 + x_9_18 = 1
 task_19: x_0_19 + x_1_19 + x_2_19 + x_3_19 + x_4_19 + x_5_19 + x_6_19 + x_7_19
          + x_8_19 + x_9_19 = 1
 task_20: x_0_20 + x_1_20 + x_2_20 + x_3_20 + x_4_20 + x_5_20 + x_6_20 + x_7_20
          + x_8_20 + x_9_20 = 1
 task_21: x_0_21 + x_1_21 + x_2_21 + x_3_21 + x_4_21 + x_5_21 + x_6_21 + x_7_21
          + x_8_21 + x_9_21 = 1
 task_22: x_0_22 + x_1_22 + x_2_22 + x_3_22 + x_4_22 + x_5_22 + x_6_22 + x_7_22
          + x_8_22 + x_9_22 = 1
 task_23: x_0_23 + x_1_23 + x_2_23 + x_3_23 + x_4_23 + x_5_23 + x_6_23 + x_7_23
          + x_8_23 + x_9_23 = 1
 task_24: x_0_24 + x_1_24 + x_2_24 + x_3_24 + x_4_24 + x_5_24 + x_6_24 + x_7_24
          + x_8_24 + x_9_24 = 1
 task_25: x_0_25 + x_1_25 + x_2_25 + x_3_25 + x_4_25 + x_5_25 + x_6_25 + x_7_25
          + x_8_25 + x_9_25 = 1
 task_26: x_0_26 + x_1_26 + x_2_26 + x_3_26 + x_4_26 + x_5_26 + x_6_26 + x_7_26
          + x_8_26 + x_9_26 = 1
 task_27: x_0_27 + x_1_27 + x_2_27 + x_3_27 + x_4_27 + x_5_27 + x_6_27 + x_7_27
          + x_8_27 + x_9_27 = 1
 task_28: x_0_28 + x_1_28 + x_2_28 + x_3_28 + x_4_28 + x_5_28 + x_6_28 + x_7_28
          + x_8_28 + x_9_28 = 1
 task_29: x_0_29 + x_1_29 + x_2_29 + x_3_29 + x_4_29 + x_5_29 + x_6_29 + x_7_29
          + x_8_29 + x_9_29 = 1
 task_30: x_0_30 + x_1_30 + x_2_30 + x_3_30 + x_4_30 + x_5_30 + x_6_30 + x_7_30
          + x_8_30 + x_9_30 = 1
 task_31: x_0_31 + x_1_31 + x_2_31 + x_3_31 + x_4_31 + x_5_31 + x_6_31 + x_7_31
          + x_8_31 + x_9_31 = 1
 task_32: x_0_32 + x_1_32 + x_2_32 + x_3_32 + x_4_32 + x_5_32 + x_6_32 + x_7_32
          + x_8_32 + x_9_32 = 1
 task_33: x_0_33 + x_1_33 + x_2_33 + x_3_33 + x_4_33 + x_5_33 + x_6_33 + x_7_33
          + x_8_33 + x_9_33 = 1
 task_34: x_0_34 + x_1_34 + x_2_34 + x_3_34 + x_4_34 + x_5_34 + x_6_34 + x_7_34
          + x_8_34 + x_9_34 = 1
 task_35: x_0_35 + x_1_35 + x_2_35 + x_3_35 + x_4_35 + x_5_35 + x_6_35 + x_7_35
          + x_8_35 + x_9_35 = 1
 task_36: x_0_36 + x_1_36 + x_2_36 + x_3_36 + x_4_36 + x_5_36 + x_6_36 + x_7_36
          + x_8_36 + x_9_36 = 1
 task_37: x_0_37 + x_1_37 + x_2_37 + x_3_37 + x_4_37 + x_5_37 + x_6_37 + x_7_37
          + x_8_37 + x_9_37 = 1
 task_38: x_0_38 + x_1_38 + x_2_38 + x_3_38 + x_4_38 + x_5_38 + x_6_38 + x_7_38
          + x_8_38 + x_9_38 = 1
 task_39: x_0_39 + x_1_39 + x_2_39 + x_3_39 + x_4_39 + x_5_39 + x_6_39 + x_7_39
          + x_8_39 + x_9_39 = 1
 task_40: x_0_40 + x_1_40 + x_2_40 + x_3_40 + x_4_40 + x_5_40 + x_6_40 + x_7_40
          + x_8_40 + x_9_40 = 1
 task_41: x_0_41 + x_1_41 + x_2_41 + x_3_41 + x_4_41 + x_5_41 + x_6_41 + x_7_41
          + x_8_41 + x_9_41 = 1
 task_42: x_0_42 + x_1_42 + x_2_42 + x_3_42 + x_4_42 + x_5_42 + x_6_42 + x_7_42
          + x_8_42 + x_9_42 = 1
 task_43: x_0_43 + x_1_43 + x_2_43 + x_3_43 + x_4_43 + x_5_43 + x_6_43 + x_7_43
          + x_8_43 + x_9_43 = 1
 task_44: x_0_44 + x_1_44 + x_2_44 + x_3_44 + x_4_44 + x_5_44 + x_6_44 + x_7_44
          + x_8_44 + x_9_44 = 1
 task_45: x_0_45 + x_1_45 + x_2_45 + x_3_45 + x_4_45 + x_5_45 + x_6_45 + x_7_45
          + x_8_45 + x_9_45 = 1
 task_46: x_0_46 + x_1_46 + x_2_46 + x_3_46 + x_4_46 + x_5_46 + x_6_46 + x_7_46
          + x_8_46 + x_9_46 = 1
 task_47: x_0_47 + x_1_47 + x_2_47 + x_3_47 + x_4_47 + x_5_47 + x_6_47 + x_7_47
          + x_8_47 + x_9_47 = 1
 task_48: x_0_48 + x_1_48 + x_2_48 + x_3_48 + x_4_48 + x_5_48 + x_6_48 + x_7_48
          + x_8_48 + x_9_48 = 1
 task_49: x_0_49 + x_1_49 + x_2_49 + x_3_49 + x_4_49 + x_5_49 + x_6_49 + x_7_49
          + x_8_49 + x_9_49 = 1
 task_50: x_0_50 + x_1_50 + x_2_50 + x_3_50 + x_4_50 + x_5_50 + x_6_50 + x_7_50
          + x_8_50 + x_9_50 = 1
 task_51: x_0_51 + x_1_51 + x_2_51 + x_3_51 + x_4_51 + x_5_51 + x_6_51 + x_7_51
          + x_8_51 + x_9_51 = 1
 task_52: x_0_52 + x_1_52 + x_2_52 + x_3_52 + x_4_52 + x_5_52 + x_6_52 + x_7_52
          + x_8_52 + x_9_52 = 1
 task_53: x_0_53 + x_1_53 + x_2_53 + x_3_53 + x_4_53 + x_5_53 + x_6_53 + x_7_53
          + x_8_53 + x_9_53 = 1
 task_54: x_0_54 + x_1_54 + x_2_54 + x_3_54 + x_4_54 + x_5_54 + x_6_54 + x_7_54
          + x_8_54 + x_9_54 = 1
 task_55: x_0_55 + x_1_55 + x_2_55 + x_3_55 + x_4_55 + x_5_55 + x_6_55 + x_7_55
          + x_8_55 + x_9_55 = 1
 task_56: x_0_56 + x_1_56 + x_2_56 + x_3_56 + x_4_56 + x_5_56 + x_6_56 + x_7_56
          + x_8_56 + x_9_56 = 1
 task_57: x_0_57 + x_1_57 + x_2_57 + x_3_57 + x_4_57 + x_5_57 + x_6_57 + x_7_57
          + x_8_57 + x_9_57 = 1
 task_58: x_0_58 + x_1_58 + x_2_58 + x_3_58 + x_4_58 + x_5_58 + x_6_58 + x_7_58
          + x_8_58 + x_9_58 = 1
 task_59: x_0_59 + x_1_59 + x_2_59 + x_3_59 + x_4_59 + x_5_59 + x_6_59 + x_7_59
          + x_8_59 + x_9_59 = 1
 task_60: x_0_60 + x_1_60 + x_2_60 + x_3_60 + x_4_60 + x_5_60 + x_6_60 + x_7_60
          + x_8_60 + x_9_60 = 1
 task_61: x_0_61 + x_1_61 + x_2_61 + x_3_61 + x_4_61 + x_5_61 + x_6_61 + x_7_61
          + x_8_61 + x_9_61 = 1
 task_62: x_0_62 + x_1_62 + x_2_62 + x_3_62 + x_4_62 + x_5_62 + x_6_62 + x_7_62
          + x_8_62 + x_9_62 = 1
 task_63: x_0_63 + x_1_63 + x_2_63 + x_3_63 + x_4_63 + x_5_63 + x_6_63 + x_7_63
          + x_8_63 + x_9_63 = 1
 task_64: x_0_64 + x_1_64 + x_2_64 + x_3_64 + x_4_64 + x_5_64 + x_6_64 + x_7_64
          + x_8_64 + x_9_64 = 1
 task_65: x_0_65 + x_1_65 + x_2_65 + x_3_65 + x_4_65 + x_5_65 + x_6_65 + x_7_65
          + x_8_65 + x_9_65 = 1
 task_66: x_0_66 + x_1_66 + x_2_66 + x_3_66 + x_4_66 + x_5_66 + x_6_66 + x_7_66
          + x_8_66 + x_9_66 = 1
 task_67: x_0_67 + x_1_67 + x_2_67 + x_3_67 + x_4_67 + x_5_67 + x_6_67 + x_7_67
          + x_8_67 + x_9_67 = 1
 task_68: x_0_68 + x_1_68 + x_2_68 + x_3_68 + x_4_68 + x_5_68 + x_6_68 + x_7_68
          + x_8_68 + x_9_68 = 1
 task_69: x_0_69 + x_1_69 + x_2_69 + x_3_69 + x_4_69 + x_5_69 + x_6_69 + x_7_69
          + x_8_69 + x_9_69 = 1
 task_70: x_0_70 + x_1_70 + x_2_70 + x_3_70 + x_4_70 + x_5_70 + x_6_70 + x_7_70
          + x_8_70 + x_9_70 = 1
 task_71: x_0_71 + x_1_71 + x_2_71 + x_3_71 + x_4_71 + x_5_71 + x_6_71 + x_7_71
          + x_8_71 + x_9_71 = 1
 task_72: x_0_72 + x_1_72 + x_2_72 + x_3_72 + x_4_72 + x_5_72 + x_6_72 + x_7_72
          + x_8_72 + x_9_72 = 1
 task_73: x_0_73 + x_1_73 + x_2_73 + x_3_73 + x_4_73 + x_5_73 + x_6_73 + x_7_73
          + x_8_73 + x_9_73 = 1
 task_74: x_0_74 + x_1_74 + x_2_74 + x_3_74 + x_4_74 + x_5_74 + x_6_74 + x_7_74
          + x_8_74 + x_9_74 = 1
 task_75: x_0_75 + x_1_75 + x_2_75 + x_3_75 + x_4_75 + x_5_75 + x_6_75 + x_7_75
          + x_8_75 + x_9_75 = 1
 task_76: x_0_76 + x_1_76 + x_2_76 + x_3_76 + x_4_76 + x_5_76 + x_6_76 + x_7_76
          + x_8_76 + x_9_76 = 1
 task_77: x_0_77 + x_1_77 + x_2_77 + x_3_77 + x_4_77 + x_5_77 + x_6_77 + x_7_77
          + x_8_77 + x_9_77 = 1
 task_78: x_0_78 + x_1_78 + x_2_78 + x_3_78 + x_4_78 + x_5_78 + x_6_78 + x_7_78
          + x_8_78 + x_9_78 = 1
 task_79: x_0_79 + x_1_79 + x_2_79 + x_3_79 + x_4_79 + x_5_79 + x_6_79 + x_7_79
          + x_8_79 + x_9_79 = 1
 task_80: x_0_80 + x_1_80 + x_2_80 + x_3_80 + x_4_80 + x_5_80 + x_6_80 + x_7_80
          + x_8_80 + x_9_80 = 1
 task_81: x_0_81 + x_1_81 + x_2_81 + x_3_81 + x_4_81 + x_5_81 + x_6_81 + x_7_81
          + x_8_81 + x_9_81 = 1
 task_82: x_0_82 + x_1_82 + x_2_82 + x_3_82 + x_4_82 + x_5_82 + x_6_82 + x_7_82
          + x_8_82 + x_9_82 = 1
 task_83: x_0_83 + x_1_83 + x_2_83 + x_3_83 + x_4_83 + x_5_83 + x_6_83 + x_7_83
          + x_8_83 + x_9_83 = 1
 task_84: x_0_84 + x_1_84 + x_2_84 + x_3_84 + x_4_84 + x_5_84 + x_6_84 + x_7_84
          + x_8_84 + x_9_84 = 1
 task_85: x_0_85 + x_1_85 + x_2_85 + x_3_85 + x_4_85 + x_5_85 + x_6_85 + x_7_85
          + x_8_85 + x_9_85 = 1
 task_86: x_0_86 + x_1_86 + x_2_86 + x_3_86 + x_4_86 + x_5_86 + x_6_86 + x_7_86
          + x_8_86 + x_9_86 = 1
 task_87: x_0_87 + x_1_87 + x_2_87 + x_3_87 + x_4_87 + x_5_87 + x_6_87 + x_7_87
          + x_8_87 + x_9_87 = 1
 task_88: x_0_88 + x_1_88 + x_2_88 + x_3_88 + x_4_88 + x_5_88 + x_6_88 + x_7_88
          + x_8_88 + x_9_88 = 1
 task_89: x_0_89 + x_1_89 + x_2_89 + x_3_89 + x_4_89 + x_5_89 + x_6_89 + x_7_89
          + x_8_89 + x_9_89 = 1
 task_90: x_0_90 + x_1_90 + x_2_90 + x_3_90 + x_4_90 + x_5_90 + x_6_90 + x_7_90
          + x_8_90 + x_9_90 = 1
 task_91: x_0_91 + x_1_91 + x_2_91 + x_3_91 + x_4_91 + x_5_91 + x_6_91 + x_7_91
          + x_8_91 + x_9_91 = 1
 task_92: x_0_92 + x_1_92 + x_2_92 + x_3_92 + x_4_92 + x_5_92 + x_6_92 + x_7_92
          + x_8_92 + x_9_92 = 1
 task_93: x_0_93 + x_1_93 + x_2_93 + x_3_93 + x_4_93 + x_5_93 + x_6_93 + x_7_93
          + x_8_93 + x_9_93 = 1
 task_94: x_0_94 + x_1_94 + x_2_94 + x_3_94 + x_4_94 + x_5_94 + x_6_94 + x_7_94
          + x_8_94 + x_9_94 = 1
 task_95: x_0_95 + x_1_95 + x_2_95 + x_3_95 + x_4_95 + x_5_95 + x_6_95 + x_7_95
          + x_8_95 + x_9_95 = 1
 task_96: x_0_96 + x_1_96 + x_2_96 + x_3_96 + x_4_96 + x_5_96 + x_6_96 + x_7_96
          + x_8_96 + x_9_96 = 1
 task_97: x_0_97 + x_1_97 + x_2_97 + x_3_97 + x_4_97 + x_5_97 + x_6_97 + x_7_97
          + x_8_97 + x_9_97 = 1
 task_98: x_0_98 + x_1_98 + x_2_98 + x_3_98 + x_4_98 + x_5_98 + x_6_98 + x_7_98
          + x_8_98 + x_9_98 = 1
 task_99: x_0_99 + x_1_99 + x_2_99 + x_3_99 + x_4_99 + x_5_99 + x_6_99 + x_7_99
          + x_8_99 + x_9_99 = 1
 capacity_0: 12 x_0_0 + 18 x_0_1 + 20 x_0_2 + 8 x_0_3 + 22 x_0_4 + 16 x_0_5
             + 19 x_0_6 + 24 x_0_7 + 9 x_0_8 + 21 x_0_9 + 13 x_0_10 + 22 x_0_11
             + 14 x_0_12 + 7 x_0_13 + 11 x_0_14 + 8 x_0_15 + 23 x_0_16
             + 7 x_0_17 + 7 x_0_18 + 14 x_0_19 + 15 x_0_20 + 9 x_0_21
             + 12 x_0_22 + 16 x_0_23 + 6 x_0_24 + 14 x_0_25 + 25 x_0_26
             + 24 x_0_27 + 12 x_0_28 + 17 x_0_29 + 14 x_0_30 + 18 x_0_31
             + 16 x_0_32 + 9 x_0_33 + 9 x_0_34 + 25 x_0_35 + 7 x_0_36 + 9 x_0_37
             + 11 x_0_38 + 20 x_0_39 + 10 x_0_40 + 13 x_0_41 + 22 x_0_42
             + 24 x_0_43 + 8 x_0_44 + 16 x_0_45 + 6 x_0_46 + 19 x_0_47
             + 8 x_0_48 + 23 x_0_49 + 24 x_0_50 + 13 x_0_51 + 9 x_0_52
             + 15 x_0_53 + 16 x_0_54 + 14 x_0_55 + 9 x_0_56 + 14 x_0_57
             + 8 x_0_58 + 6 x_0_59 + 13 x_0_60 + 13 x_0_61 + 24 x_0_62
             + 18 x_0_63 + 7 x_0_64 + 13 x_0_65 + 24 x_0_66 + 22 x_0_67
             + 8 x_0_68 + 20 x_0_69 + 25 x_0_70 + 6 x_0_71 + 19 x_0_72
             + 19 x_0_73 + 13 x_0_74 + 14 x_0_75 + 5 x_0_76 + 24 x_0_77
             + 18 x_0_78 + 20 x_0_79 + 20 x_0_80 + 10 x_0_81 + 13 x_0_82
             + 19 x_0_83 + 11 x_0_84 + 23 x_0_85 + 19 x_0_86 + 12 x_0_87
             + 25 x_0_88 + 16 x_0_89 + 13 x_0_90 + 9 x_0_91 + 19 x_0_92
             + 13 x_0_93 + 9 x_0_94 + 5 x_0_95 + 20 x_0_96 + 5 x_0_97 + 7 x_0_98
             + 21 x_0_99 <= 192
 capacity_1: 15 x_1_0 + 12 x_1_1 + 9 x_1_2 + 14 x_1_3 + 16 x_1_4 + 11 x_1_5
             + 5 x_1_6 + 5 x_1_7 + 9 x_1_8 + 9 x_1_9 + 15 x_1_10 + 11 x_1_11
             + 16 x_1_12 + 11 x_1_13 + 24 x_1_14 + 6 x_1_15 + 13 x_1_16
             + 20 x_1_17 + 8 x_1_18 + 14 x_1_19 + 7 x_1_20 + 10 x_1_21
             + 11 x_1_22 + 10 x_1_23 + 24 x_1_24 + 6 x_1_25 + 12 x_1_26
             + 23 x_1_27 + 20 x_1_28 + 17 x_1_29 + 10 x_1_30 + 15 x_1_31
             + 21 x_1_32 + 18 x_1_33 + 11 x_1_34 + 17 x_1_35 + 13 x_1_36
             + 16 x_1_37 + 25 x_1_38 + 20 x_1_39 + 25 x_1_40 + 17 x_1_41
             + 7 x_1_42 + 14 x_1_43 + 11 x_1_44 + 5 x_1_45 + 10 x_1_46
             + 25 x_1_47 + 6 x_1_48 + 18 x_1_49 + 9 x_1_50 + 22 x_1_51
             + 6 x_1_52 + 23 x_1_53 + 21 x_1_54 + 16 x_1_55 + 23 x_1_56
             + 10 x_1_57 + 6 x_1_58 + 6 x_1_59 + 6 x_1_60 + 13 x_1_61
             + 12 x_1_62 + 5 x_1_63 + 18 x_1_64 + 8 x_1_65 + 14 x_1_66
             + 5 x_1_67 + 14 x_1_68 + 16 x_1_69 + 23 x_1_70 + 6 x_1_71
             + 19 x_1_72 + 13 x_1_73 + 19 x_1_74 + 6 x_1_75 + 7 x_1_76
             + 5 x_1_77 + 14 x_1_78 + 6 x_1_79 + 8 x_1_80 + 13 x_1_81
             + 25 x_1_82 + 16 x_1_83 + 20 x_1_84 + 11 x_1_85 + 7 x_1_86
             + 21 x_1_87 + 15 x_1_88 + 24 x_1_89 + 6 x_1_90 + 18 x_1_91
             + 9 x_1_92 + 15 x_1_93 + 16 x_1_94 + 23 x_1_95 + 24 x_1_96
             + 25 x_1_97 + 17 x_1_98 + 11 x_1_99 <= 192
 capacity_2: 13 x_2_0 + 7 x_2_1 + 18 x_2_2 + 7 x_2_3 + 20 x_2_4 + 11 x_2_5
             + 12 x_2_6 + 6 x_2_7 + 23 x_2_8 + 18 x_2_9 + 24 x_2_10 + 19 x_2_11
             + 13 x_2_12 + 6 x_2_13 + 11 x_2_14 + 18 x_2_15 + 19 x_2_16
             + 8 x_2_17 + 25 x_2_18 + 11 x_2_19 + 19 x_2_20 + 11 x_2_21
             + 24 x_2_22 + 13 x_2_23 + 9 x_2_24 + 15 x_2_25 + 16 x_2_26
             + 6 x_2_27 + 15 x_2_28 + 8 x_2_29 + 18 x_2_30 + 5 x_2_31
             + 20 x_2_32 + 19 x_2_33 + 17 x_2_34 + 12 x_2_35 + 19 x_2_36
             + 6 x_2_37 + 5 x_2_38 + 13 x_2_39 + 24 x_2_40 + 25 x_2_41
             + 14 x_2_42 + 17 x_2_43 + 22 x_2_44 + 24 x_2_45 + 5 x_2_46
             + 7 x_2_47 + 8 x_2_48 + 22 x_2_49 + 11 x_2_50 + 21 x_2_51
             + 17 x_2_52 + 22 x_2_53 + 24 x_2_54 + 11 x_2_55 + 21 x_2_56
             + 23 x_2_57 + 9 x_2_58 + 5 x_2_59 + 11 x_2_60 + 7 x_2_61
             + 10 x_2_62 + 17 x_2_63 + 12 x_2_64 + 17 x_2_65 + 13 x_2_66
             + 19 x_2_67 + 8 x_2_68 + 21 x_2_69 + 14 x_2_70 + 23 x_2_71
             + 9 x_2_72 + 21 x_2_73 + 7 x_2_74 + 24 x_2_75 + 13 x_2_76
             + 13 x_2_77 + 20 x_2_78 + 25 x_2_79 + 22 x_2_80 + 14 x_2_81
             + 13 x_2_82 + 14 x_2_83 + 12 x_2_84 + 7 x_2_85 + 11 x_2_86
             + 8 x_2_87 + 10 x_2_88 + 22 x_2_89 + 21 x_2_90 + 19 x_2_91
             + 15 x_2_92 + 12 x_2_93 + 25 x_2_94 + 15 x_2_95 + 21 x_2_96
             + 19 x_2_97 + 6 x_2_98 + 18 x_2_99 <= 192
 capacity_3: 23 x_3_0 + 20 x_3_1 + 12 x_3_2 + 12 x_3_3 + 12 x_3_4 + 17 x_3_5
             + 13 x_3_6 + 12 x_3_7 + 10 x_3_8 + 9 x_3_9 + 24 x_3_10 + 8 x_3_11
             + 7 x_3_12 + 22 x_3_13 + 25 x_3_14 + 24 x_3_15 + 11 x_3_16
             + 6 x_3_17 + 7 x_3_18 + 20 x_3_19 + 14 x_3_20 + 8 x_3_21
             + 25 x_3_22 + 15 x_3_23 + 8 x_3_24 + 20 x_3_25 + 10 x_3_26
             + 9 x_3_27 + 8 x_3_28 + 20 x_3_29 + 23 x_3_30 + 5 x_3_31
             + 18 x_3_32 + 11 x_3_33 + 7 x_3_34 + 17 x_3_35 + 15 x_3_36
             + 18 x_3_37 + 6 x_3_38 + 7 x_3_39 + 18 x_3_40 + 10 x_3_41
             + 23 x_3_42 + 16 x_3_43 + 24 x_3_44 + 14 x_3_45 + 5 x_3_46
             + 12 x_3_47 + 20 x_3_48 + 21 x_3_49 + 9 x_3_50 + 24 x_3_51
             + 22 x_3_52 + 14 x_3_53 + 20 x_3_54 + 12 x_3_55 + 17 x_3_56
             + 10 x_3_57 + 9 x_3_58 + 7 x_3_59 + 11 x_3_60 + 6 x_3_61
             + 15 x_3_62 + 9 x_3_63 + 13 x_3_64 + 10 x_3_65 + 6 x_3_66
             + 14 x_3_67 + 14 x_3_68 + 23 x_3_69 + 10 x_3_70 + 19 x_3_71
             + 21 x_3_72 + 18 x_3_73 + 19 x_3_74 + 6 x_3_75 + 21 x_3_76
             + 17 x_3_77 + 22 x_3_78 + 12 x_3_79 + 7 x_3_80 + 16 x_3_81
             + 13 x_3_82 + 13 x_3_83 + 14 x_3_84 + 6 x_3_85 + 11 x_3_86
             + 15 x_3_87 + 7 x_3_88 + 9 x_3_89 + 5 x_3_90 + 17 x_3_91
             + 15 x_3_92 + 22 x_3_93 + 5 x_3_94 + 7 x_3_95 + 7 x_3_96
             + 16 x_3_97 + 13 x_3_98 + 16 x_3_99 <= 192
 capacity_4: 15 x_4_0 + 24 x_4_1 + 14 x_4_2 + 9 x_4_3 + 8 x_4_4 + 21 x_4_5
             + 14 x_4_6 + 17 x_4_7 + 22 x_4_8 + 9 x_4_9 + 8 x_4_10 + 5 x_4_11
             + 25 x_4_12 + 24 x_4_13 + 9 x_4_14 + 23 x_4_15 + 5 x_4_16
             + 24 x_4_17 + 13 x_4_18 + 22 x_4_19 + 10 x_4_20 + 25 x_4_21
             + 15 x_4_22 + 24 x_4_23 + 19 x_4_24 + 21 x_4_25 + 20 x_4_26
             + 24 x_4_27 + 24 x_4_28 + 9 x_4_29 + 7 x_4_30 + 18 x_4_31
             + 19 x_4_32 + 8 x_4_33 + 15 x_4_34 + 9 x_4_35 + 9 x_4_36 + 8 x_4_37
             + 25 x_4_38 + 23 x_4_39 + 22 x_4_40 + 5 x_4_41 + 5 x_4_42
             + 22 x_4_43 + 5 x_4_44 + 17 x_4_45 + 6 x_4_46 + 7 x_4_47
             + 20 x_4_48 + 23 x_4_49 + 25 x_4_50 + 17 x_4_51 + 15 x_4_52
             + 10 x_4_53 + 15 x_4_54 + 14 x_4_55 + 12 x_4_56 + 17 x_4_57
             + 13 x_4_58 + 15 x_4_59 + 25 x_4_60 + 19 x_4_61 + 5 x_4_62
             + 14 x_4_63 + 14 x_4_64 + 20 x_4_65 + 16 x_4_66 + 20 x_4_67
             + 17 x_4_68 + 17 x_4_69 + 23 x_4_70 + 21 x_4_71 + 5 x_4_72
             + 13 x_4_73 + 22 x_4_74 + 21 x_4_75 + 25 x_4_76 + 16 x_4_77
             + 9 x_4_78 + 19 x_4_79 + 14 x_4_80 + 12 x_4_81 + 14 x_4_82
             + 16 x_4_83 + 14 x_4_84 + 24 x_4_85 + 16 x_4_86 + 14 x_4_87
             + 18 x_4_88 + 13 x_4_89 + 6 x_4_90 + 6 x_4_91 + 16 x_4_92
             + 15 x_4_93 + 21 x_4_94 + 16 x_4_95 + 6 x_4_96 + 14 x_4_97
             + 7 x_4_98 + 9 x_4_99 <= 192
 capacity_5: 23 x_5_0 + 7 x_5_1 + 20 x_5_2 + 5 x_5_3 + 13 x_5_4 + 15 x_5_5
             + 10 x_5_6 + 13 x_5_7 + 18 x_5_8 + 25 x_5_9 + 22 x_5_10 + 10 x_5_11
             + 18 x_5_12 + 15 x_5_13 + 13 x_5_14 + 23 x_5_15 + 23 x_5_16
             + 8 x_5_17 + 7 x_5_18 + 8 x_5_19 + 10 x_5_20 + 10 x_5_21 + 7 x_5_22
             + 11 x_5_23 + 6 x_5_24 + 15 x_5_25 + 5 x_5_26 + 17 x_5_27
             + 7 x_5_28 + 22 x_5_29 + 6 x_5_30 + 18 x_5_31 + 25 x_5_32
             + 25 x_5_33 + 24 x_5_34 + 11 x_5_35 + 14 x_5_36 + 7 x_5_37
             + 12 x_5_38 + 17 x_5_39 + 24 x_5_40 + 11 x_5_41 + 22 x_5_42
             + 14 x_5_43 + 11 x_5_44 + 10 x_5_45 + 24 x_5_46 + 11 x_5_47
             + 18 x_5_48 + 10 x_5_49 + 16 x_5_50 + 21 x_5_51 + 16 x_5_52
             + 23 x_5_53 + 10 x_5_54 + 12 x_5_55 + 25 x_5_56 + 17 x_5_57
             + 5 x_5_58 + 7 x_5_59 + 6 x_5_60 + 8 x_5_61 + 16 x_5_62 + 13 x_5_63
             + 19 x_5_64 + 15 x_5_65 + 18 x_5_66 + 13 x_5_67 + 9 x_5_68
             + 22 x_5_69 + 17 x_5_70 + 21 x_5_71 + 23 x_5_72 + 7 x_5_73
             + 25 x_5_74 + 21 x_5_75 + 5 x_5_76 + 9 x_5_77 + 13 x_5_78
             + 25 x_5_79 + 17 x_5_80 + 20 x_5_81 + 23 x_5_82 + 16 x_5_83
             + 12 x_5_84 + 18 x_5_85 + 17 x_5_86 + 25 x_5_87 + 22 x_5_88
             + 8 x_5_89 + 6 x_5_90 + 19 x_5_91 + 20 x_5_92 + 12 x_5_93
             + 9 x_5_94 + 14 x_5_95 + 24 x_5_96 + 14 x_5_97 + 24 x_5_98
             + 24 x_5_99 <= 192
 capacity_6: 15 x_6_0 + 25 x_6_1 + 20 x_6_2 + 23 x_6_3 + 17 x_6_4 + 11 x_6_5
             + 25 x_6_6 + 22 x_6_7 + 6 x_6_8 + 19 x_6_9 + 15 x_6_10 + 15 x_6_11
             + 21 x_6_12 + 13 x_6_13 + 8 x_6_14 + 16 x_6_15 + 8 x_6_16
             + 19 x_6_17 + 16 x_6_18 + 9 x_6_19 + 10 x_6_20 + 15 x_6_21
             + 8 x_6_22 + 23 x_6_23 + 19 x_6_24 + 9 x_6_25 + 22 x_6_26
             + 6 x_6_27 + 23 x_6_28 + 18 x_6_29 + 20 x_6_30 + 15 x_6_31
             + 14 x_6_32 + 15 x_6_33 + 22 x_6_34 + 9 x_6_35 + 11 x_6_36
             + 23 x_6_37 + 10 x_6_38 + 6 x_6_39 + 10 x_6_40 + 21 x_6_41
             + 11 x_6_42 + 25 x_6_43 + 10 x_6_44 + 9 x_6_45 + 8 x_6_46
             + 24 x_6_47 + 7 x_6_48 + 24 x_6_49 + 24 x_6_50 + 18 x_6_51
             + 7 x_6_52 + 13 x_6_53 + 10 x_6_54 + 6 x_6_55 + 5 x_6_56 + 6 x_6_57
             + 20 x_6_58 + 7 x_6_59 + 17 x_6_60 + 9 x_6_61 + 20 x_6_62
             + 20 x_6_63 + 6 x_6_64 + 7 x_6_65 + 11 x_6_66 + 16 x_6_67
             + 11 x_6_68 + 7 x_6_69 + 8 x_6_70 + 24 x_6_71 + 25 x_6_72
             + 10 x_6_73 + 9 x_6_74 + 25 x_6_75 + 11 x_6_76 + 14 x_6_77
             + 17 x_6_78 + 20 x_6_79 + 22 x_6_80 + 23 x_6_81 + 21 x_6_82
             + 11 x_6_83 + 8 x_6_84 + 19 x_6_85 + 7 x_6_86 + 21 x_6_87
             + 14 x_6_88 + 6 x_6_89 + 13 x_6_90 + 23 x_6_91 + 11 x_6_92
             + 14 x_6_93 + 15 x_6_94 + 10 x_6_95 + 21 x_6_96 + 11 x_6_97
             + 5 x_6_98 + 10 x_6_99 <= 192
 capacity_7: 25 x_7_0 + 15 x_7_1 + 24 x_7_2 + 24 x_7_3 + 10 x_7_4 + 16 x_7_5
             + 25 x_7_6 + 16 x_7_7 + 8 x_7_8 + 14 x_7_9 + 25 x_7_10 + 7 x_7_11
             + 18 x_7_12 + 23 x_7_13 + 18 x_7_14 + 21 x_7_15 + 13 x_7_16
             + 14 x_7_17 + 11 x_7_18 + 14 x_7_19 + 9 x_7_20 + 6 x_7_21
             + 22 x_7_22 + 7 x_7_23 + 13 x_7_24 + 24 x_7_25 + 17 x_7_26
             + 16 x_7_27 + 19 x_7_28 + 8 x_7_29 + 5 x_7_30 + 5 x_7_31
             + 22 x_7_32 + 21 x_7_33 + 14 x_7_34 + 13 x_7_35 + 17 x_7_36
             + 24 x_7_37 + 19 x_7_38 + 7 x_7_39 + 9 x_7_40 + 23 x_7_41
             + 17 x_7_42 + 5 x_7_43 + 12 x_7_44 + 24 x_7_45 + 10 x_7_46
             + 25 x_7_47 + 21 x_7_48 + 6 x_7_49 + 10 x_7_50 + 14 x_7_51
             + 11 x_7_52 + 18 x_7_53 + 10 x_7_54 + 6 x_7_55 + 12 x_7_56
             + 12 x_7_57 + 7 x_7_58 + 7 x_7_59 + 13 x_7_60 + 18 x_7_61
             + 22 x_7_62 + 7 x_7_63 + 13 x_7_64 + 23 x_7_65 + 20 x_7_66
             + 22 x_7_67 + 10 x_7_68 + 12 x_7_69 + 21 x_7_70 + 19 x_7_71
             + 24 x_7_72 + 17 x_7_73 + 19 x_7_74 + 15 x_7_75 + 14 x_7_76
             + 20 x_7_77 + 21 x_7_78 + 14 x_7_79 + 15 x_7_80 + 5 x_7_81
             + 11 x_7_82 + 8 x_7_83 + 6 x_7_84 + 6 x_7_85 + 10 x_7_86
             + 14 x_7_87 + 17 x_7_88 + 20 x_7_89 + 12 x_7_90 + 15 x_7_91
             + 9 x_7_92 + 10 x_7_93 + 10 x_7_94 + 10 x_7_95 + 12 x_7_96
             + 25 x_7_97 + 12 x_7_98 + 14 x_7_99 <= 192
 capacity_8: 6 x_8_0 + 12 x_8_1 + 5 x_8_2 + 20 x_8_3 + 24 x_8_4 + 20 x_8_5
             + 10 x_8_6 + 13 x_8_7 + 25 x_8_8 + 21 x_8_9 + 20 x_8_10 + 6 x_8_11
             + 21 x_8_12 + 7 x_8_13 + 15 x_8_14 + 22 x_8_15 + 20 x_8_16
             + 12 x_8_17 + 22 x_8_18 + 14 x_8_19 + 21 x_8_20 + 10 x_8_21
             + 7 x_8_22 + 6 x_8_23 + 24 x_8_24 + 12 x_8_25 + 15 x_8_26
             + 16 x_8_27 + 16 x_8_28 + 13 x_8_29 + 24 x_8_30 + 17 x_8_31
             + 10 x_8_32 + 14 x_8_33 + 16 x_8_34 + 7 x_8_35 + 22 x_8_36
             + 16 x_8_37 + 10 x_8_38 + 22 x_8_39 + 17 x_8_40 + 10 x_8_41
             + 24 x_8_42 + 9 x_8_43 + 23 x_8_44 + 11 x_8_45 + 22 x_8_46
             + 23 x_8_47 + 22 x_8_48 + 10 x_8_49 + 10 x_8_50 + 18 x_8_51
             + 19 x_8_52 + 12 x_8_53 + 11 x_8_54 + 11 x_8_55 + 6 x_8_56
             + 25 x_8_57 + 25 x_8_58 + 17 x_8_59 + 20 x_8_60 + 21 x_8_61
             + 22 x_8_62 + 17 x_8_63 + 24 x_8_64 + 17 x_8_65 + 22 x_8_66
             + 9 x_8_67 + 13 x_8_68 + 17 x_8_69 + 13 x_8_70 + 16 x_8_71
             + 16 x_8_72 + 5 x_8_73 + 15 x_8_74 + 22 x_8_75 + 10 x_8_76
             + 22 x_8_77 + 8 x_8_78 + 14 x_8_79 + 20 x_8_80 + 9 x_8_81
             + 8 x_8_82 + 7 x_8_83 + 5 x_8_84 + 17 x_8_85 + 16 x_8_86
             + 16 x_8_87 + 18 x_8_88 + 23 x_8_89 + 17 x_8_90 + 17 x_8_91
             + 25 x_8_92 + 22 x_8_93 + 10 x_8_94 + 19 x_8_95 + 17 x_8_96
             + 18 x_8_97 + 18 x_8_98 + 22 x_8_99 <= 192
 capacity_9: 16 x_9_0 + 16 x_9_1 + 9 x_9_2 + 14 x_9_3 + 18 x_9_4 + 20 x_9_5
             + 5 x_9_6 + 8 x_9_7 + 13 x_9_8 + 6 x_9_9 + 6 x_9_10 + 23 x_9_11
             + 10 x_9_12 + 12 x_9_13 + 15 x_9_14 + 16 x_9_15 + 20 x_9_16
             + 22 x_9_17 + 12 x_9_18 + 8 x_9_19 + 9 x_9_20 + 15 x_9_21
             + 16 x_9_22 + 5 x_9_23 + 9 x_9_24 + 20 x_9_25 + 12 x_9_26
             + 6 x_9_27 + 12 x_9_28 + 8 x_9_29 + 8 x_9_30 + 12 x_9_31 + 8 x_9_32
             + 14 x_9_33 + 7 x_9_34 + 13 x_9_35 + 12 x_9_36 + 18 x_9_37
             + 12 x_9_38 + 5 x_9_39 + 23 x_9_40 + 19 x_9_41 + 7 x_9_42
             + 12 x_9_43 + 22 x_9_44 + 16 x_9_45 + 18 x_9_46 + 24 x_9_47
             + 21 x_9_48 + 8 x_9_49 + 5 x_9_50 + 15 x_9_51 + 6 x_9_52 + 5 x_9_53
             + 12 x_9_54 + 25 x_9_55 + 19 x_9_56 + 17 x_9_57 + 5 x_9_58
             + 24 x_9_59 + 6 x_9_60 + 11 x_9_61 + 23 x_9_62 + 16 x_9_63
             + 11 x_9_64 + 13 x_9_65 + 12 x_9_66 + 9 x_9_67 + 19 x_9_68
             + 22 x_9_69 + 19 x_9_70 + 20 x_9_71 + 14 x_9_72 + 15 x_9_73
             + 18 x_9_74 + 5 x_9_75 + 16 x_9_76 + 15 x_9_77 + 9 x_9_78
             + 21 x_9_79 + 12 x_9_80 + 23 x_9_81 + 20 x_9_82 + 21 x_9_83
             + 6 x_9_84 + 13 x_9_85 + 24 x_9_86 + 25 x_9_87 + 17 x_9_88
             + 24 x_9_89 + 5 x_9_90 + 14 x_9_91 + 25 x_9_92 + 7 x_9_93
             + 18 x_9_94 + 17 x_9_95 + 7 x_9_96 + 22 x_9_97 + 7 x_9_98
             + 18 x_9_99 <= 192
Bounds
End
